[2026-03-01T01:41:11] Logging to: /run/media/saveas/Secondary-Storage/Masters/CS234/CS234_Reinforcement_Learning/Final Project/CS234_Final_Project/results/trajectory_optimization/nlp/TRACK4_330m/base/run_trajopt_demo_output.log
======================================================================
IPOPT TRAJECTORY OPTIMIZATION DEMO (SINGLE STAGE)
======================================================================

1. Loading track: /run/media/saveas/Secondary-Storage/Masters/CS234/CS234_Reinforcement_Learning/Final Project/CS234_Final_Project/maps/TRACK4_330m.mat
   Track length: 330.0 m

2. Creating vehicle model...
   Vehicle: SingleTrackModel(VW_Golf_GTI, weight_transfer=enabled)

3. Loaded obstacles from map: 0

4. Setup:
   N = 120
   ds = 2.75 m
   Obstacle subsamples/segment = 7
   Obstacle enforce midpoints = False
   Obstacle use slack = False
   Track buffer = 0.00 m
   lambda_u = 0.005
   vehicle_radius_m = 0.00
   eps_s = 0.100, eps_kappa = 0.050
   Solver path = Python/CasADi (IPOPT)

======================================================================
SINGLE STAGE: COMBINED OBJECTIVE (ACCEPTANCE-GATED)
======================================================================
Acceptance gates: success=True, max_slack<=0.000e+00, min_clearance>=-0.0010 m
Acceptance policy: practical epsilon mode (allows tiny negative dense clearance).
Initializer: obstacle_aware_init=True, sigma=8.00 m, margin=0.30 m

Attempt 1/4: baseline
  N=120, ds=2.750 m, subsamples=7, obstacle_clearance_m=0.000

******************************************************************************
This program contains Ipopt, a library for large-scale nonlinear optimization.
 Ipopt is released as open source code under the Eclipse Public License (EPL).
         For more information visit https://github.com/coin-or/Ipopt
******************************************************************************

This is Ipopt version 3.14.11, running with linear solver MUMPS 5.4.1.

Number of nonzeros in equality constraint Jacobian...:    13219
Number of nonzeros in inequality constraint Jacobian.:     1694
Number of nonzeros in Lagrangian Hessian.............:     5080

Total number of variables............................:     1210
                     variables with only lower bounds:        0
                variables with lower and upper bounds:        0
                     variables with only upper bounds:        0
Total number of equality constraints.................:      970
Total number of inequality constraints...............:     1331
        inequality constraints with only lower bounds:      847
   inequality constraints with lower and upper bounds:        0
        inequality constraints with only upper bounds:      484

iter    objective    inf_pr   inf_du lg(mu)  ||d||  lg(rg) alpha_du alpha_pr  ls
   0  3.3000000e+01 3.53e-01 1.07e+00  -1.0 0.00e+00    -  0.00e+00 0.00e+00   0
   1  3.2860673e+01 8.97e-01 9.91e+02  -1.0 5.01e+00   2.0 7.25e-01 1.00e+00H  1
   2  3.2862648e+01 6.76e-01 1.02e+03  -1.0 9.17e-02   3.3 1.00e+00 5.00e-01h  2
   3  3.2864800e+01 9.03e-02 1.41e+02  -1.0 6.08e-02   2.9 1.00e+00 1.00e+00h  1
   4  3.2864817e+01 9.22e-04 4.06e+01  -1.0 5.56e-03   2.4 1.00e+00 1.00e+00h  1
   5  3.2864496e+01 3.16e-07 5.42e-02  -1.0 3.21e-04   1.9 1.00e+00 1.00e+00h  1
   6  9.9591859e+00 1.17e+01 7.17e-01  -2.5 2.64e+01    -  3.59e-01 8.71e-01f  1
   7  1.0244612e+01 1.14e+01 5.20e+02  -2.5 8.86e+00   1.4 2.02e-02 3.22e-02h  3
   8  1.0928164e+01 1.22e+01 2.46e+03  -2.5 8.67e+00   0.9 1.11e-01 7.87e-02h  1
   9  1.0928941e+01 1.22e+01 2.46e+03  -2.5 8.07e+00   1.4 3.44e-01 9.61e-05h  1
iter    objective    inf_pr   inf_du lg(mu)  ||d||  lg(rg) alpha_du alpha_pr  ls
  10  1.2271843e+01 1.37e+01 5.74e+03  -2.5 8.34e+00   1.8 2.89e-01 1.66e-01h  1
  11  1.2291475e+01 1.36e+01 5.72e+03  -2.5 6.89e+00   2.2 3.36e-01 2.84e-03h  1
  12  1.3587696e+01 1.15e+01 2.64e+03  -2.5 7.59e+00   1.7 3.17e-01 1.85e-01h  1
  13  1.3594384e+01 1.15e+01 5.46e+03  -2.5 5.85e+00   2.2 5.28e-01 1.14e-03h  1
  14  1.3889436e+01 1.09e+01 3.15e+03  -2.5 5.93e+00   1.7 7.25e-01 4.94e-02h  1
  15  1.3916023e+01 1.09e+01 7.47e+03  -2.5 7.02e+00   2.1 6.33e-01 4.65e-03h  1
  16  1.4888860e+01 9.17e+00 3.59e+03  -2.5 6.36e+00   1.6 1.00e+00 1.68e-01h  1
  17  1.4906274e+01 9.14e+00 5.16e+03  -2.5 4.92e+00   2.1 3.31e-01 3.51e-03h  1
  18  1.5601349e+01 7.98e+00 4.10e+03  -2.5 5.03e+00   1.6 3.19e-01 1.37e-01h  1
  19  1.5606991e+01 7.97e+00 4.61e+03  -2.5 4.35e+00   2.0 1.98e-01 1.28e-03h  1
iter    objective    inf_pr   inf_du lg(mu)  ||d||  lg(rg) alpha_du alpha_pr  ls
  20  1.5926812e+01 7.43e+00 3.83e+03  -2.5 4.45e+00   1.5 2.50e-01 7.10e-02h  1
  21  1.5936616e+01 7.41e+00 3.84e+03  -2.5 7.83e+00   2.0 1.31e-02 2.22e-03h  1
  22  1.6185430e+01 7.03e+00 3.85e+03  -2.5 8.02e+00   1.5 1.05e-04 5.50e-02h  1
  23  1.6465007e+01 6.57e+00 3.58e+03  -2.5 3.98e+00   1.9 1.51e-02 7.00e-02h  1
  24  1.6525529e+01 6.46e+00 3.52e+03  -2.5 4.05e+00   1.4 6.29e-01 1.63e-02h  1
  25  1.6646518e+01 6.26e+00 3.41e+03  -2.5 3.94e+00   1.9 1.13e-01 3.22e-02h  1
  26  1.6708440e+01 6.16e+00 3.35e+03  -2.5 5.03e+00   1.4 2.02e-01 1.62e-02h  1
  27  1.6912688e+01 5.84e+00 3.16e+03  -2.5 7.52e+00   1.8 5.97e-02 5.66e-02h  1
  28  1.6960120e+01 5.76e+00 8.43e+03  -2.5 3.69e+00   2.2 5.58e-01 1.35e-02h  1
  29  1.7785687e+01 4.54e+00 6.48e+03  -2.5 3.75e+00   1.8 2.33e-01 2.29e-01h  1
iter    objective    inf_pr   inf_du lg(mu)  ||d||  lg(rg) alpha_du alpha_pr  ls
  30  1.7792910e+01 4.53e+00 4.01e+03  -2.5 3.90e+00   1.3 8.33e-01 2.45e-03h  1
  31  1.8184583e+01 3.91e+00 2.88e+03  -2.5 3.95e+00   1.7 4.89e-01 1.36e-01h  1
  32  1.8187954e+01 3.90e+00 7.29e+03  -2.5 3.23e+00   2.1 1.00e+00 1.35e-03h  1
  33  1.8921146e+01 2.76e+00 3.31e+03  -2.5 3.15e+00   1.7 1.00e+00 2.87e-01h  1
  34  1.8926964e+01 2.75e+00 3.69e+03  -2.5 2.08e+00   2.1 1.00e+00 3.15e-03h  1
  35  1.9229080e+01 2.31e+00 2.75e+03  -2.5 2.16e+00   1.6 1.00e+00 1.61e-01h  1
  36  1.9246304e+01 2.28e+00 1.94e+03  -2.5 1.79e+00   2.0 1.00e+00 1.10e-02h  1
  37  1.9430680e+01 2.02e+00 2.63e+03  -2.5 1.83e+00   1.6 1.00e+00 1.17e-01h  1
  38  1.9579606e+01 1.81e+00 1.46e+03  -2.5 1.58e+00   2.0 5.34e-01 1.07e-01h  1
  39  1.9721588e+01 1.61e+00 2.19e+03  -2.5 1.43e+00   1.5 7.16e-01 1.12e-01h  1
iter    objective    inf_pr   inf_du lg(mu)  ||d||  lg(rg) alpha_du alpha_pr  ls
  40  1.9965550e+01 1.27e+00 1.60e+03  -2.5 1.28e+00   1.9 3.05e-01 2.18e-01h  1
  41  2.0006018e+01 1.21e+00 2.40e+03  -2.5 1.02e+00   1.5 6.69e-01 4.51e-02h  1
  42  2.0202993e+01 9.40e-01 2.02e+03  -2.5 9.78e-01   1.9 9.46e-03 2.31e-01h  1
  43  2.0231857e+01 8.99e-01 2.22e+03  -2.5 9.97e-01   1.4 4.76e-01 4.32e-02h  1
  44  2.0608977e+01 3.81e-01 8.67e+02  -2.5 7.17e-01   1.8 6.66e-01 5.95e-01h  1
  45  2.0647537e+01 3.25e-01 4.19e+02  -2.5 2.90e-01   2.3 1.00e+00 1.48e-01h  1
  46  2.0650560e+01 3.20e-01 1.34e+03  -2.5 2.51e-01   1.8 1.00e+00 1.32e-02h  1
  47  2.0727079e+01 2.11e-01 4.91e+02  -2.5 2.48e-01   2.2 1.00e+00 3.40e-01h  1
  48  2.0876454e+01 1.01e-02 3.90e+01  -2.5 1.64e-01   1.7 1.00e+00 1.00e+00h  1
  49  2.0876521e+01 1.97e-04 1.77e+00  -2.5 1.71e-03   1.2 9.93e-01 1.00e+00h  1
iter    objective    inf_pr   inf_du lg(mu)  ||d||  lg(rg) alpha_du alpha_pr  ls
  50  2.0880537e+01 3.26e-02 2.12e+00  -2.5 6.65e-02   0.8 6.60e-01 1.00e+00f  1
  51  2.0880925e+01 1.02e-03 1.08e-01  -2.5 4.56e-03   1.2 1.00e+00 1.00e+00h  1
  52  2.0881541e+01 2.51e-04 4.94e-02  -2.5 9.38e-03   0.7 1.00e+00 1.00e+00h  1
  53  2.0882216e+01 1.72e-03 3.29e-02  -2.5 1.87e-02   0.2 1.00e+00 1.00e+00h  1
  54  2.0881925e+01 1.37e-02 1.86e-02  -2.5 3.19e-02  -0.2 1.00e+00 1.00e+00h  1
  55  2.0868688e+01 6.16e-03 8.16e-03  -3.8 3.79e-02  -0.7 9.97e-01 1.00e+00h  1
  56  2.0829950e+01 1.31e-02 7.56e-03  -3.8 1.16e-01  -1.2 1.00e+00 1.00e+00h  1
  57  2.0733312e+01 3.84e-02 7.74e-03  -3.8 3.57e-01  -1.7 1.00e+00 1.00e+00h  1
  58  2.0557768e+01 1.77e-01 7.41e-03  -3.8 1.01e+00  -2.1 1.00e+00 7.18e-01h  1
  59  1.9978336e+01 2.33e+00 1.50e-02  -3.8 2.59e+00  -2.6 1.00e+00 1.00e+00h  1
iter    objective    inf_pr   inf_du lg(mu)  ||d||  lg(rg) alpha_du alpha_pr  ls
  60  1.9847181e+01 2.11e+00 2.93e-02  -3.8 1.13e+00  -2.2 1.00e+00 1.00e+00h  1
  61  1.9745775e+01 1.78e+00 2.73e-02  -3.8 2.56e+00  -2.7 7.02e-01 2.55e-01h  1
  62  1.9422839e+01 2.13e+00 2.07e-02  -3.8 3.86e+00  -3.1 2.57e-01 4.10e-01h  1
  63  1.9343760e+01 1.85e+00 4.07e-02  -3.8 2.18e+00  -2.7 1.58e-01 3.15e-01h  1
  64  1.9188798e+01 2.03e+00 3.63e-02  -3.8 7.74e+00  -3.2 6.37e-01 2.39e-01h  1
  65  1.8992980e+01 3.44e+00 5.19e-02  -3.8 3.30e+00  -2.8 4.66e-01 8.09e-01h  1
  66  1.8942538e+01 4.40e+00 3.41e-02  -3.8 1.54e+01  -3.2 1.62e-01 7.83e-02h  1
  67  1.8921794e+01 3.84e+00 3.81e-02  -3.8 4.89e+00  -2.8 3.87e-01 1.37e-01h  1
  68  1.8919360e+01 4.36e+00 3.03e-02  -3.8 1.88e+00  -2.4 1.11e-01 2.14e-01h  1
  69  1.8915957e+01 4.03e+00 8.46e-02  -3.8 2.52e+00  -2.0 3.36e-01 9.89e-02h  1
iter    objective    inf_pr   inf_du lg(mu)  ||d||  lg(rg) alpha_du alpha_pr  ls
  70  1.8913104e+01 3.80e+00 7.79e-02  -3.8 1.44e+00  -2.4 7.45e-02 6.72e-02h  1
  71  1.8876969e+01 4.33e+00 1.32e-01  -3.8 2.47e+00  -2.9 1.76e-01 2.50e-01f  1
  72  1.8878876e+01 3.69e+00 1.17e-01  -3.8 1.97e+00  -0.7 3.78e-01 1.48e-01h  1
  73  1.8884690e+01 2.89e+00 3.24e-01  -3.8 2.04e+00  -1.2 4.33e-01 2.23e-01h  1
  74  1.8894577e+01 2.04e+00 3.72e-01  -3.8 1.70e+00  -0.7 1.10e-01 3.03e-01h  1
  75  1.8896861e+01 1.80e+00 3.27e-01  -3.8 1.29e+00  -1.2 4.30e-01 1.17e-01h  1
  76  1.8895340e+01 1.46e+00 2.64e-01  -3.8 2.80e+00  -1.7 5.87e-01 1.93e-01h  1
  77  1.8899904e+01 1.18e+00 2.68e-01  -3.8 1.10e+00  -1.3 9.02e-01 1.91e-01h  1
  78  1.8913479e+01 4.32e-01 1.12e-01  -3.8 1.09e+00  -1.7 6.67e-01 6.46e-01h  1
  79  1.8922633e+01 1.56e-01 5.39e-02  -3.8 4.30e-01  -1.3 1.00e+00 1.00e+00h  1
iter    objective    inf_pr   inf_du lg(mu)  ||d||  lg(rg) alpha_du alpha_pr  ls
  80  1.8912140e+01 4.84e-02 9.52e-03  -3.8 2.63e-01  -1.8 1.00e+00 1.00e+00h  1
  81  1.8884360e+01 1.68e-01 7.10e-03  -3.8 6.65e-01  -2.3 1.00e+00 1.00e+00h  1
  82  1.8831373e+01 9.18e-01 7.07e-02  -3.8 1.77e+00  -2.8 1.00e+00 7.63e-01h  1
  83  1.8735564e+01 2.22e+00 5.08e-02  -3.8 7.55e+00    -  1.92e-01 2.86e-01h  1
  84  1.8716909e+01 1.83e+00 4.24e-02  -3.8 4.93e+00    -  1.83e-01 1.70e-01h  1
  85  1.8700238e+01 1.34e+00 3.18e-02  -3.8 5.21e+00    -  5.61e-01 2.60e-01h  1
  86  1.8688148e+01 1.72e+00 1.98e-02  -3.8 3.60e+00    -  7.75e-01 4.14e-01h  1
  87  1.8694638e+01 9.14e-01 3.90e-02  -3.8 1.15e+00    -  2.33e-01 4.86e-01h  1
  88  1.8699428e+01 4.60e-01 2.35e-02  -3.8 1.32e+00    -  8.22e-01 5.30e-01h  1
  89  1.8704647e+01 5.44e-03 1.64e-03  -3.8 3.33e-01    -  9.75e-01 1.00e+00h  1
iter    objective    inf_pr   inf_du lg(mu)  ||d||  lg(rg) alpha_du alpha_pr  ls
  90  1.8704633e+01 5.10e-04 4.62e-06  -3.8 4.85e-02    -  1.00e+00 1.00e+00h  1
  91  1.8694400e+01 3.59e-02 5.63e-03  -5.7 3.82e-01    -  9.21e-01 7.97e-01h  1
  92  1.8689608e+01 1.46e+00 6.37e-01  -5.7 7.09e-01    -  5.08e-01 9.58e-01h  1
  93  1.8684858e+01 1.18e+00 4.58e-01  -5.7 1.87e+00    -  7.83e-01 2.35e-01h  1
  94  1.8686190e+01 8.29e-01 2.55e-02  -5.7 6.71e-01    -  1.00e+00 7.41e-01h  1
  95  1.8677972e+01 6.93e-01 6.47e-02  -5.7 1.88e+01    -  6.96e-02 5.63e-02h  1
  96  1.8679832e+01 3.87e-01 3.78e-02  -5.7 1.10e+00    -  7.22e-04 5.00e-01h  2
  97  1.8683223e+01 3.93e-01 2.87e-02  -5.7 9.99e-01    -  1.00e+00 5.56e-01h  1
  98  1.8698239e+01 1.60e-02 1.81e-02  -5.7 1.05e+00    -  3.19e-02 1.00e+00H  1
  99  1.8694495e+01 3.36e-02 1.34e-02  -5.7 1.34e+00    -  1.00e+00 2.37e-01h  1
iter    objective    inf_pr   inf_du lg(mu)  ||d||  lg(rg) alpha_du alpha_pr  ls
 100  1.8688877e+01 2.68e-01 7.88e-03  -5.7 8.44e-01    -  1.00e+00 1.00e+00f  1
 101  1.8700608e+01 1.95e-03 2.05e-02  -5.7 1.42e+00    -  1.35e-01 1.00e+00H  1
 102  1.8693332e+01 8.49e-02 1.21e-02  -5.7 1.63e+00    -  1.00e+00 3.52e-01h  1
 103  1.8689265e+01 2.71e-01 7.78e-03  -5.7 7.05e-01    -  1.00e+00 1.00e+00h  1
 104  1.8701376e+01 2.64e-04 2.29e-02  -5.7 1.44e+00    -  4.51e-02 1.00e+00H  1
 105  1.8693297e+01 9.02e-02 1.33e-02  -5.7 1.68e+00    -  1.00e+00 3.61e-01h  1
 106  1.8689138e+01 2.86e-01 8.17e-03  -5.7 7.32e-01    -  1.00e+00 1.00e+00h  1
 107  1.8701277e+01 2.66e-04 2.24e-02  -5.7 1.45e+00    -  2.16e-02 1.00e+00H  1
 108  1.8691607e+01 1.56e-01 9.74e-03  -5.7 1.67e+00    -  1.00e+00 4.50e-01h  1
 109  1.8690181e+01 1.81e-01 5.94e-03  -5.7 5.86e-01    -  1.00e+00 1.00e+00h  1
iter    objective    inf_pr   inf_du lg(mu)  ||d||  lg(rg) alpha_du alpha_pr  ls
 110  1.8695736e+01 5.84e-02 9.96e-02  -5.7 9.15e-01    -  8.69e-02 1.00e+00H  1
 111  1.8689717e+01 1.49e-01 1.60e-02  -5.7 7.71e-01    -  1.00e+00 1.00e+00h  1
 112  1.8694895e+01 1.52e-02 3.00e-02  -5.7 8.47e-01    -  1.13e-01 1.00e+00H  1
 113  1.8691804e+01 6.03e-02 1.41e-02  -5.7 1.10e+00    -  1.00e+00 4.32e-01h  1
 114  1.8691035e+01 3.89e-02 5.77e-03  -5.7 3.25e-01    -  1.00e+00 1.00e+00f  1
 115  1.8689349e+01 2.76e-01 1.18e-02  -5.7 9.30e-01    -  3.77e-01 5.00e-01h  2
 116  1.8690210e+01 8.78e-02 5.09e-03  -5.7 5.81e-01    -  1.00e+00 6.64e-01h  1
 117  1.8688975e+01 3.23e-01 3.60e-02  -5.7 8.85e-01    -  2.30e-01 5.00e-01h  2
 118  1.8690872e+01 1.56e-01 7.58e-03  -5.7 4.87e-01    -  1.00e+00 1.00e+00h  1
 119  1.8688592e+01 4.56e-01 1.06e-02  -5.7 7.88e-01    -  3.92e-01 1.00e+00h  1
iter    objective    inf_pr   inf_du lg(mu)  ||d||  lg(rg) alpha_du alpha_pr  ls
 120  1.8689392e+01 1.64e-01 5.26e-03  -5.7 8.62e-01    -  1.00e+00 7.81e-01h  1
 121  1.8689041e+01 1.28e-01 6.98e-02  -5.7 6.06e-01    -  7.04e-01 5.00e-01h  2
 122  1.8690015e+01 5.88e-02 3.76e-02  -5.7 3.65e-01    -  1.00e+00 5.00e-01h  2
 123  1.8691565e+01 5.45e-02 1.00e-02  -5.7 1.21e-01    -  1.00e+00 1.00e+00h  1
 124  1.8692229e+01 2.85e-02 7.10e-03  -5.7 3.41e-01    -  1.00e+00 1.00e+00H  1
 125  1.8691600e+01 4.28e-02 4.06e-03  -5.7 3.96e-01    -  1.00e+00 7.07e-01H  1
 126  1.8691391e+01 5.91e-02 5.40e-03  -5.7 1.38e-01    -  1.00e+00 1.00e+00h  1
 127  1.8690954e+01 9.44e-02 3.95e-03  -5.7 7.52e-01    -  3.46e-01 1.25e-01h  4
 128  1.8691457e+01 4.98e-02 5.29e-03  -5.7 8.85e-02    -  1.00e+00 1.00e+00h  1
 129  1.8691015e+01 8.81e-02 5.74e-03  -5.7 7.47e-01    -  3.80e-01 1.25e-01h  4
iter    objective    inf_pr   inf_du lg(mu)  ||d||  lg(rg) alpha_du alpha_pr  ls
 130  1.8691451e+01 4.72e-02 5.35e-03  -5.7 1.00e-01    -  1.00e+00 1.00e+00h  1
 131  1.8691005e+01 7.93e-02 5.64e-03  -5.7 7.54e-01    -  3.72e-01 1.25e-01h  4
 132  1.8691364e+01 4.56e-02 5.19e-03  -5.7 8.93e-02    -  1.00e+00 8.09e-01h  1
 133  1.8690944e+01 9.30e-02 6.81e-03  -5.7 7.29e-01    -  4.01e-01 1.25e-01h  4
 134  1.8691176e+01 4.36e-02 4.97e-03  -5.7 1.26e-01    -  1.00e+00 5.00e-01h  2
 135  1.8692648e+01 1.25e-02 2.59e-02  -5.7 4.25e-01    -  9.15e-01 1.00e+00H  1
 136  1.8691753e+01 3.56e-02 1.41e-02  -5.7 4.88e-01    -  1.00e+00 4.80e-01h  1
 137  1.8691905e+01 2.06e-02 6.07e-03  -5.7 1.92e-01    -  1.00e+00 1.00e+00H  1
 138  1.8691651e+01 1.12e-03 9.97e-03  -5.7 6.87e-01    -  4.63e-01 6.25e-02h  5
 139  1.8691674e+01 8.83e-05 4.34e-03  -5.7 1.21e-02    -  1.00e+00 1.00e+00H  1
iter    objective    inf_pr   inf_du lg(mu)  ||d||  lg(rg) alpha_du alpha_pr  ls
 140  1.8691424e+01 3.91e-02 5.19e-03  -5.7 1.25e-01    -  1.00e+00 1.00e+00h  1
 141  1.8691317e+01 3.81e-02 4.95e-03  -5.7 7.04e-01    -  3.91e-01 3.12e-02h  6
 142  1.8691796e+01 2.20e-05 5.44e-03  -5.7 1.76e-01    -  1.00e+00 1.00e+00H  1
 143  1.8691548e+01 2.24e-02 2.57e-03  -5.7 3.31e-01    -  1.00e+00 3.39e-01h  2
 144  1.8691992e+01 3.17e-06 5.56e-03  -5.7 1.31e-01    -  1.00e+00 1.00e+00H  1
 145  1.8691472e+01 1.07e-02 2.49e-03  -5.7 7.66e-01    -  2.71e-01 1.25e-01h  4
 146  1.8691505e+01 2.97e-03 4.69e-03  -5.7 9.73e-03    -  1.00e+00 1.00e+00h  1
 147  1.8691370e+01 3.51e-02 1.83e-03  -5.7 3.32e-02    -  1.00e+00 1.00e+00h  1
 148  1.8691807e+01 3.27e-04 5.34e-03  -5.7 7.91e-02    -  1.00e+00 1.00e+00H  1
 149  1.8689326e+01 2.17e+00 5.10e-01  -5.7 7.52e-01    -  3.22e-01 1.00e+00h  1
iter    objective    inf_pr   inf_du lg(mu)  ||d||  lg(rg) alpha_du alpha_pr  ls
 150  1.8681901e+01 1.35e+00 9.85e-02  -5.7 4.16e-01  -1.4 1.00e+00 9.81e-01h  1
 151  1.8682335e+01 1.35e+00 1.51e-01  -5.7 5.88e-01  -0.1 6.23e-02 3.29e-02h  1
 152  1.8683388e+01 1.15e+00 1.29e-01  -5.7 2.59e-01  -0.6 1.32e-01 1.36e-01h  1
 153  1.8689096e+01 3.00e-01 3.95e-02  -5.7 2.41e-01  -1.1 3.82e-01 7.01e-01h  1